9
0 1 4
0 2 100
0 3 100
0 4 8
0 5 100
0 6 100
0 7 8
0 8 100
1 2 8
1 3 100
1 4 100
1 5 100
1 6 100
1 7 11
1 8 100
2 3 7
2 4 100
2 5 4
2 6 100
2 7 100
2 8 2
3 4 9
3 5 14
3 6 100
3 7 100
3 8 100
4 5 10
4 6 100
4 7 100
4 8 100
5 6 2
5 7 100
5 8 100
6 7 1
6 8 6
7 8 7